letting n =  10
letting blocks =  [[1, 10], [2, 4], [2, 7], [3, 1], [3, 6], [4, 3], [4, 10], [5, 2], [5, 4], [5, 8], [6, 4], [6, 5], [6, 9], [6, 10], [7, 1], [7, 2], [7, 5], [7, 8], [7, 9], [8, 4], [9, 1], [9, 2], [9, 3], [9, 5], [9, 8], [10, 2], [10, 7], [10, 9]]
